
Gurobi 11.0.3 (mac64[arm]) logging started Tue Feb 25 14:08:20 2025


Gurobi 11.0.3 (mac64[arm]) logging started Tue Feb 25 14:08:20 2025


Gurobi 11.0.3 (mac64[arm]) logging started Tue Feb 25 14:08:20 2025


Gurobi 11.0.3 (mac64[arm]) logging started Tue Feb 25 19:40:15 2025


Gurobi 11.0.3 (mac64[arm]) logging started Tue Feb 25 19:40:15 2025


Gurobi 11.0.3 (mac64[arm]) logging started Tue Feb 25 19:40:15 2025


Gurobi 11.0.3 (mac64[arm]) logging started Wed Feb 26 10:45:45 2025


Gurobi 11.0.3 (mac64[arm]) logging started Wed Feb 26 10:45:45 2025


Gurobi 11.0.3 (mac64[arm]) logging started Wed Feb 26 10:45:45 2025

